words_hard_train/3931.qaiger
aag 73 16 0 1 57
2
4
8
10
14
16
26
28
40
42
54
56
72
74
86
88
147
6 3 5
12 8 10
18 15 17
20 12 19
22 14 16
24 21 23
30 27 29
32 26 28
34 31 33
36 25 34
38 37 33
44 41 43
46 40 42
48 45 47
50 39 48
52 7 50
58 54 56
60 2 4
62 59 61
64 7 46
66 62 65
68 53 66
70 55 57
76 73 75
78 71 77
80 69 78
82 72 74
84 81 83
90 86 89
92 87 88
94 91 93
96 84 94
98 85 95
100 97 99
102 19 23
104 103 12
106 9 11
108 106 102
110 105 109
112 78 83
114 67 112
116 111 115
118 6 47
120 77 83
122 121 59
124 119 123
126 60 46
128 127 113
130 124 129
132 116 130
134 38 49
136 132 135
138 136 37
140 24 35
142 141 51
144 138 142
146 100 145
i0 1 x2[4]
i1 2 y2[4]
i2 1 x2[0]
i3 2 y2[0]
i4 1 x2[1]
i5 2 y2[1]
i6 1 x2[2]
i7 2 y2[2]
i8 1 x2[3]
i9 2 y2[3]
i10 1 x2[5]
i11 2 y2[5]
i12 1 x2[6]
i13 2 y2[6]
i14 1 x2[7]
i15 2 y2[7]
o0 bv[0]
c
simplified
  <
    invert
      1
    xor
      1
      add
        1 x2
        2 y2
