words_hard_train/3931.qaiger.qdimacs
p cnf 73 172
a 1 4 36 7 43 13 20 27 0
e 2 3 5 6 8 9 10 11 12 14 15 16 17 18 19 21 22 23 24 25 26 28 29 30 31 32 33 34 35 37 38 39 40 41 42 44 45 46 47 48 49 50 51 52 53 54 55 56 57 58 59 60 61 62 63 64 65 66 67 68 69 70 71 72 73 0
1 2 3 0
-1 -3 0
-2 -3 0
-4 -5 6 0
4 -6 0
5 -6 0
7 8 9 0
-7 -9 0
-8 -9 0
-6 9 10 0
6 -10 0
-9 -10 0
-7 -8 11 0
7 -11 0
8 -11 0
10 11 12 0
-10 -12 0
-11 -12 0
13 14 15 0
-13 -15 0
-14 -15 0
-13 -14 16 0
13 -16 0
14 -16 0
15 16 17 0
-15 -17 0
-16 -17 0
12 -17 18 0
-12 -18 0
17 -18 0
18 16 19 0
-18 -19 0
-16 -19 0
20 21 22 0
-20 -22 0
-21 -22 0
-20 -21 23 0
20 -23 0
21 -23 0
22 23 24 0
-22 -24 0
-23 -24 0
19 -24 25 0
-19 -25 0
24 -25 0
3 -25 26 0
-3 -26 0
25 -26 0
-27 -28 29 0
27 -29 0
28 -29 0
-1 -2 30 0
1 -30 0
2 -30 0
29 30 31 0
-29 -31 0
-30 -31 0
3 -23 32 0
-3 -32 0
23 -32 0
-31 32 33 0
31 -33 0
-32 -33 0
26 -33 34 0
-26 -34 0
33 -34 0
27 28 35 0
-27 -35 0
-28 -35 0
36 37 38 0
-36 -38 0
-37 -38 0
35 38 39 0
-35 -39 0
-38 -39 0
34 -39 40 0
-34 -40 0
39 -40 0
-36 -37 41 0
36 -41 0
37 -41 0
40 41 42 0
-40 -42 0
-41 -42 0
-43 44 45 0
43 -45 0
-44 -45 0
43 -44 46 0
-43 -46 0
44 -46 0
45 46 47 0
-45 -47 0
-46 -47 0
-42 -47 48 0
42 -48 0
47 -48 0
42 47 49 0
-42 -49 0
-47 -49 0
48 49 50 0
-48 -50 0
-49 -50 0
9 11 51 0
-9 -51 0
-11 -51 0
51 -6 52 0
-51 -52 0
6 -52 0
4 5 53 0
-4 -53 0
-5 -53 0
-53 -51 54 0
53 -54 0
51 -54 0
52 54 55 0
-52 -55 0
-54 -55 0
-39 41 56 0
39 -56 0
-41 -56 0
33 -56 57 0
-33 -57 0
56 -57 0
55 57 58 0
-55 -58 0
-57 -58 0
-3 23 59 0
3 -59 0
-23 -59 0
38 41 60 0
-38 -60 0
-41 -60 0
60 29 61 0
-60 -61 0
-29 -61 0
59 61 62 0
-59 -62 0
-61 -62 0
-30 -23 63 0
30 -63 0
23 -63 0
63 56 64 0
-63 -64 0
-56 -64 0
-62 64 65 0
62 -65 0
-64 -65 0
-58 -65 66 0
58 -66 0
65 -66 0
-19 24 67 0
19 -67 0
-24 -67 0
-66 67 68 0
66 -68 0
-67 -68 0
-68 18 69 0
68 -69 0
-18 -69 0
-12 17 70 0
12 -70 0
-17 -70 0
70 25 71 0
-70 -71 0
-25 -71 0
-69 -71 72 0
69 -72 0
71 -72 0
-50 72 73 0
50 -73 0
-72 -73 0
-73 0
